

units real

boundary p p p
#femtoseconds
timestep 2

neighbor    1.0 bin
neigh_modify every 1 delay 0 check yes

atom_style      full
bond_style	harmonic
angle_style	harmonic
dihedral_style	fourier

variable		cut_off equal 2.5 
variable		ep_NC_gro equal 0.01
variable		ep_unit_conv equal 0.239
variable		ep_NC equal ${ep_NC_gro}*${ep_unit_conv}
variable		C12 equal ${ep_NC}*${cut_off}^12
pair_style	lj/smog  15

read_data	data_file.lammps
#read_restart restart_file.1000000
restart 1000000 restart_file.*

pair_coeff      * * ${C12} 0.
pair_coeff	 1492 1505 1.37398e+06 747.832
pair_coeff	 1489 1509 1.03878e+06 650.244
pair_coeff	 1491 1508 130881 230.809
pair_coeff	 1492 1508 469279 437.049
pair_coeff	 1491 1509 507310 454.413
pair_coeff	 1492 1509 261328 326.143
pair_coeff	 1492 1510 1.63677e+06 816.221
pair_coeff	 1491 1511 405735 406.383
pair_coeff	 1492 1511 349648 377.25
pair_coeff	 1468 1488 296360 347.315
pair_coeff	 1469 1488 498150 450.292
pair_coeff	 1480 1488 1.36412e+06 745.146
pair_coeff	 652 1514 298041 348.299
pair_coeff	 1279 1291 1.30239e+06 728.089
pair_coeff	 1278 1297 469376 252.356
pair_coeff	 1279 1297 193777 162.145
pair_coeff	 1278 1298 80989.7 104.826
pair_coeff	 1279 1298 128368 131.972
pair_coeff	 1277 1298 374290 225.35
pair_coeff	 1274 1291 199785 285.164
pair_coeff	 1275 1291 183072 272.976
pair_coeff	 1274 1298 630914 506.757
pair_coeff	 1280 1298 161539 148.045
pair_coeff	 1275 1290 1.06353e+06 657.943
pair_coeff	 1294 1310 412460 409.737
pair_coeff	 1295 1310 1.60956e+06 809.41
pair_coeff	 1292 1311 957751 624.368
pair_coeff	 1294 1311 824733 579.39
pair_coeff	 1295 1311 689744 529.857
pair_coeff	 1294 1313 313229 357.063
pair_coeff	 1295 1313 521733 460.828
pair_coeff	 1254 1271 822343 578.55
pair_coeff	 1255 1271 608024 497.479
pair_coeff	 1275 1285 1.59096e+06 804.719
pair_coeff	 1274 1287 1.45829e+06 770.435
pair_coeff	 1274 1288 195015 281.74
pair_coeff	 1275 1288 684731 527.928
pair_coeff	 1272 1289 732800 546.144
pair_coeff	 1274 1289 360294 382.95
pair_coeff	 1275 1289 189555 277.768
pair_coeff	 1268 1287 793818 568.427
pair_coeff	 1290 1309 1.62681e+06 813.734
pair_coeff	 1288 1309 620532 502.57
pair_coeff	 1289 1309 1.63713e+06 816.311
pair_coeff	 1254 1268 279902 337.534
pair_coeff	 1254 1269 568705 481.125
pair_coeff	 1255 1268 979118 631.294
pair_coeff	 1255 1269 335819 369.715
pair_coeff	 1252 1269 882331 599.28
pair_coeff	 1469 1482 1.66999e+06 824.462
pair_coeff	 1468 1485 159688 254.947
pair_coeff	 1469 1485 751563 553.091
pair_coeff	 1466 1486 773525 561.114
pair_coeff	 1468 1486 380434 393.508
pair_coeff	 1469 1486 294037 345.951
pair_coeff	 1448 1465 223777 301.802
pair_coeff	 1449 1465 276892 335.714
pair_coeff	 1453 1465 1.25081e+06 713.526
pair_coeff	 629 648 473945 439.216
pair_coeff	 630 648 1.06319e+06 657.84
pair_coeff	 631 648 1.42302e+06 761.061
pair_coeff	 635 649 241655 313.626
pair_coeff	 1491 1518 1.68796e+06 828.887
pair_coeff	 1504 1518 355127 219.506
pair_coeff	 1496 1519 453709 248.109
pair_coeff	 1497 1519 134945 135.311
pair_coeff	 1504 1519 323994 209.663
pair_coeff	 659 1519 946514 620.694
pair_coeff	 1498 1519 227985 175.876
pair_coeff	 1478 1494 216647 171.447
pair_coeff	 1480 1494 266181 190.039
pair_coeff	 1474 1495 390073 230.052
pair_coeff	 1480 1495 382728 227.876
pair_coeff	 1481 1495 228139 175.935
pair_coeff	 1474 1496 118969 127.049
pair_coeff	 1481 1496 329504 211.439
pair_coeff	 1474 1497 321116 208.73
pair_coeff	 1478 1497 471553 252.941
pair_coeff	 1478 1504 156903 145.905
pair_coeff	 1477 1494 538095 270.199
pair_coeff	 1475 1496 167080 150.562
pair_coeff	 1477 1496 515507 264.467
pair_coeff	 1475 1497 74402.5 100.473
pair_coeff	 1477 1497 95239.3 113.674
pair_coeff	 1475 1504 435381 243.046
pair_coeff	 1477 1504 108306 121.222
pair_coeff	 1479 1504 396219 231.858
pair_coeff	 1473 1496 432324 242.191
pair_coeff	 1476 1497 165987 150.069
pair_coeff	 1279 1478 583528 487.354
pair_coeff	 1280 1478 620561 502.581
pair_coeff	 1301 1474 1.36773e+06 746.129
pair_coeff	 1303 1474 209824 292.241
pair_coeff	 1304 1474 928931 614.902
pair_coeff	 1300 1478 833929 582.611
pair_coeff	 1301 1478 817810 576.953
pair_coeff	 1303 1478 323920 363.106
pair_coeff	 1304 1478 122804 223.574
pair_coeff	 1305 1478 147356 244.906
pair_coeff	 1306 1478 318278 359.93
pair_coeff	 1303 1480 613173 499.581
pair_coeff	 1304 1480 129635 229.708
pair_coeff	 1305 1480 381878 394.254
pair_coeff	 1303 1481 394776 400.857
pair_coeff	 1304 1481 314229 357.633
pair_coeff	 1454 1474 141671 138.642
pair_coeff	 1452 1471 439096 244.081
pair_coeff	 1453 1471 230882 176.99
pair_coeff	 1455 1474 482937 255.976
pair_coeff	 649 671 220962 299.898
pair_coeff	 650 671 1.26719e+06 718.182
pair_coeff	 651 671 1.50543e+06 782.788
pair_coeff	 655 672 478224 441.194
pair_coeff	 656 672 1.45617e+06 769.874
pair_coeff	 653 673 864960 593.352
pair_coeff	 655 673 739886 548.778
pair_coeff	 656 673 494322 448.559
pair_coeff	 638 671 83197.7 184.022
pair_coeff	 642 671 320081 360.948
pair_coeff	 644 671 358833 382.173
pair_coeff	 645 671 198045 283.92
pair_coeff	 633 671 1.09418e+06 667.358
pair_coeff	 635 671 227264 304.144
pair_coeff	 637 671 1.01518e+06 642.816
pair_coeff	 639 669 1.09338e+06 667.114
pair_coeff	 641 669 764920 557.985
pair_coeff	 639 671 71697.1 170.83
pair_coeff	 641 671 123955 224.619
pair_coeff	 639 672 369302 387.708
pair_coeff	 641 672 323516 362.879
pair_coeff	 640 671 498345 450.38
pair_coeff	 640 672 226100 303.364
pair_coeff	 634 659 1.32955e+06 735.642
pair_coeff	 636 659 1.24838e+06 712.833
pair_coeff	 1497 1520 529212 267.959
pair_coeff	 652 1517 1.36538e+06 745.489
pair_coeff	 658 1520 1.02256e+06 645.146
pair_coeff	 659 1520 236465 310.24
pair_coeff	 658 1521 566871 480.348
pair_coeff	 659 1521 232217 307.441
pair_coeff	 658 1523 382155 394.398
pair_coeff	 659 1523 911349 609.055
pair_coeff	 657 1524 706473 536.243
pair_coeff	 658 1524 599520 493.988
pair_coeff	 652 1526 945009 620.201
pair_coeff	 657 1526 559343 477.148
pair_coeff	 658 1526 1.28045e+06 721.931
pair_coeff	 652 1527 775101 561.686
pair_coeff	 657 1527 1.35315e+06 742.141
pair_coeff	 658 1527 1.33888e+06 738.219
pair_coeff	 659 1527 1.00405e+06 639.28
pair_coeff	 1498 1520 175917 154.493
pair_coeff	 1500 1520 203598 166.204
pair_coeff	 1498 1521 188636 159.98
pair_coeff	 1500 1521 295301 200.164
pair_coeff	 1500 1527 503143 261.276
pair_coeff	 1501 1527 542417 271.282
pair_coeff	 1239 1523 1.28243e+06 722.487
pair_coeff	 1239 1524 987526 633.999
pair_coeff	 1260 1521 909241 608.35
pair_coeff	 1258 1523 556724 476.03
pair_coeff	 1259 1523 922340 612.717
pair_coeff	 1260 1523 95601.4 197.263
pair_coeff	 1258 1524 165831 259.805
pair_coeff	 1259 1524 71756.7 170.901
pair_coeff	 1260 1524 180281 270.888
pair_coeff	 1258 1526 1.26435e+06 717.378
pair_coeff	 1259 1526 153249 249.754
pair_coeff	 660 1520 674075 523.804
pair_coeff	 660 1521 174713 266.671
pair_coeff	 661 1521 326990 364.822
pair_coeff	 668 1521 679738 525.999
pair_coeff	 660 1523 1.22632e+06 706.507
pair_coeff	 661 1523 539233 468.492
pair_coeff	 667 1523 982004 632.224
pair_coeff	 668 1523 253643 321.311
pair_coeff	 668 1524 1.09987e+06 669.091
pair_coeff	 1242 1523 1.14166e+06 681.685
pair_coeff	 1499 1520 443326 245.253
pair_coeff	 1499 1521 110540 122.465
pair_coeff	 1238 1523 1.36199e+06 744.562
pair_coeff	 1240 1523 78024.5 178.209
pair_coeff	 1241 1523 1.39274e+06 752.919
pair_coeff	 1240 1524 975495 630.125
pair_coeff	 1261 1523 815722 576.216
pair_coeff	 1278 1500 1.10372e+06 670.262
pair_coeff	 1278 1501 190574 278.513
pair_coeff	 1279 1501 313109 356.995
pair_coeff	 1278 1502 38388.6 125.002
pair_coeff	 1279 1502 101885 203.643
pair_coeff	 1278 1503 1.20499e+06 700.335
pair_coeff	 1279 1503 489252 446.252
pair_coeff	 1276 1502 882145 599.217
pair_coeff	 1277 1502 116286 217.56
pair_coeff	 1478 1503 385617 228.735
pair_coeff	 1282 1498 1.49869e+06 781.035
pair_coeff	 1280 1500 143517 241.694
pair_coeff	 1282 1500 506571 454.082
pair_coeff	 1280 1501 119380 220.435
pair_coeff	 1280 1502 123587 224.285
pair_coeff	 1280 1503 1.18313e+06 693.953
pair_coeff	 1475 1498 106129 119.997
pair_coeff	 1477 1498 199990 164.724
pair_coeff	 1477 1500 340616 214.974
pair_coeff	 1477 1501 407975 235.272
pair_coeff	 1477 1503 280649 195.135
pair_coeff	 1479 1503 243679 181.829
pair_coeff	 1260 1282 422773 239.501
pair_coeff	 1260 1498 852139 588.938
pair_coeff	 1258 1500 741103 549.229
pair_coeff	 1259 1500 728126 544.399
pair_coeff	 1260 1500 42683 131.808
pair_coeff	 1259 1501 761431 556.711
pair_coeff	 1260 1501 820841 578.021
pair_coeff	 1258 1502 392770 399.837
pair_coeff	 1259 1502 37144.8 122.96
pair_coeff	 1260 1502 492266 447.625
pair_coeff	 1281 1500 317182 359.309
pair_coeff	 1281 1501 997122 637.072
pair_coeff	 1281 1502 741915 549.53
pair_coeff	 1284 1502 806676 573.012
pair_coeff	 1476 1498 41451.4 74.9934
pair_coeff	 1476 1500 283290 196.051
pair_coeff	 1261 1282 236782 179.237
pair_coeff	 1262 1282 123337 129.36
pair_coeff	 1262 1498 1.22518e+06 706.177
pair_coeff	 1261 1500 903238 606.339
pair_coeff	 1262 1500 928133 614.638
pair_coeff	 1278 1299 103325 118.402
pair_coeff	 1279 1299 446238 246.058
pair_coeff	 1278 1477 558008 476.578
pair_coeff	 1279 1477 528124 463.641
pair_coeff	 1278 1479 319282 360.497
pair_coeff	 1279 1479 16093.1 80.9347
pair_coeff	 1296 1479 1.50497e+06 782.67
pair_coeff	 1297 1479 469037 436.936
pair_coeff	 1280 1299 35246.2 69.1528
pair_coeff	 1282 1299 388741 229.659
pair_coeff	 1280 1300 120752 127.997
pair_coeff	 1280 1475 535307 466.784
pair_coeff	 1282 1475 527190 463.231
pair_coeff	 1280 1477 26019.1 102.911
pair_coeff	 1282 1477 594808 492.043
pair_coeff	 1280 1479 358980 382.251
pair_coeff	 1300 1475 1.59067e+06 804.645
pair_coeff	 1301 1475 154862 251.066
pair_coeff	 1303 1475 126878 227.252
pair_coeff	 1304 1475 1.08873e+06 665.694
pair_coeff	 1300 1477 237770 311.095
pair_coeff	 1301 1477 111223 212.771
pair_coeff	 1303 1477 142679 240.987
pair_coeff	 1304 1477 353138 379.128
pair_coeff	 1305 1477 837965 584.019
pair_coeff	 1306 1477 523386 461.557
pair_coeff	 1300 1479 1.01084e+06 641.439
pair_coeff	 1304 1479 685711 528.305
pair_coeff	 1305 1479 138254 237.221
pair_coeff	 1306 1479 150631 247.612
pair_coeff	 1281 1299 95821.5 114.021
pair_coeff	 1281 1477 704567 535.52
pair_coeff	 1302 1475 235713 309.746
pair_coeff	 1456 1475 470797 252.738
pair_coeff	 1302 1477 671886 522.952
pair_coeff	 1294 1326 1.68126e+06 827.24
pair_coeff	 1304 1319 407302 235.078
pair_coeff	 1305 1319 419277 238.509
pair_coeff	 1303 1320 234997 178.56
pair_coeff	 1304 1320 209705 168.678
pair_coeff	 1300 1323 158388 146.594
pair_coeff	 1301 1323 52314.7 84.2492
pair_coeff	 1303 1323 151388 143.318
pair_coeff	 1299 1325 326926 210.61
pair_coeff	 1300 1325 118767 126.941
pair_coeff	 1301 1325 257638 186.964
pair_coeff	 1306 1325 288773 197.939
pair_coeff	 1305 1326 529214 267.96
pair_coeff	 1306 1326 322185 209.077
pair_coeff	 1302 1323 106730 120.336
pair_coeff	 1317 1327 1.42465e+06 761.497
pair_coeff	 1317 1330 707316 536.563
pair_coeff	 1317 1331 497042 449.791
pair_coeff	 1316 1330 103623 205.373
pair_coeff	 1314 1331 960479 625.256
pair_coeff	 1316 1331 394013 400.47
pair_coeff	 667 1239 596397 492.699
pair_coeff	 665 1239 544931 470.961
pair_coeff	 666 1239 206620 290.002
pair_coeff	 1239 1525 24217.2 99.2833
pair_coeff	 1256 1525 1.63742e+06 816.384
pair_coeff	 1257 1525 416034 411.509
pair_coeff	 1258 1525 60549.7 156.989
pair_coeff	 1259 1525 39055.6 126.083
pair_coeff	 1260 1525 279180 337.098
pair_coeff	 1238 1264 483821 256.21
pair_coeff	 1238 1525 359823 382.7
pair_coeff	 1240 1525 366225 386.09
pair_coeff	 1234 1264 784660 565.139
pair_coeff	 1254 1284 659544 518.127
pair_coeff	 1260 1281 320971 208.683
pair_coeff	 1257 1283 528540 267.789
pair_coeff	 1258 1283 263002 188.9
pair_coeff	 1260 1283 228029 175.893
pair_coeff	 1258 1284 522191 266.176
pair_coeff	 1261 1281 545385 272.023
pair_coeff	 1261 1283 362921 221.901
pair_coeff	 1330 1352 1.15324e+06 685.133
pair_coeff	 1235 1249 376840 391.645
pair_coeff	 1235 1251 387772 397.285
pair_coeff	 1232 1249 869003 594.737
pair_coeff	 1234 1249 615979 500.723
pair_coeff	 1234 1251 359153 382.344
pair_coeff	 1254 1267 1.39068e+06 752.363
pair_coeff	 1235 1248 1.34615e+06 740.221
pair_coeff	 1248 1267 584467 487.747
pair_coeff	 1234 1248 423004 414.941
pair_coeff	 854 871 1.17805e+06 692.462
pair_coeff	 856 870 192218 279.712
pair_coeff	 857 870 494987 448.86
pair_coeff	 856 871 592172 490.951
pair_coeff	 857 871 227488 304.294
pair_coeff	 857 872 1.03549e+06 649.213
pair_coeff	 856 873 202316 286.965
pair_coeff	 857 873 127684 227.972
pair_coeff	 861 873 1.43372e+06 763.918
pair_coeff	 857 867 1.20165e+06 699.363
pair_coeff	 856 869 1.33477e+06 737.085
pair_coeff	 837 847 1.37433e+06 747.929
pair_coeff	 836 850 152282 248.965
pair_coeff	 837 850 676640 524.799
pair_coeff	 836 851 502749 452.366
pair_coeff	 837 851 392075 399.483
pair_coeff	 834 851 1.15063e+06 684.356
pair_coeff	 583 858 802661 571.584
pair_coeff	 836 853 506670 454.127
pair_coeff	 837 853 912771 609.53
pair_coeff	 573 590 524217 461.923
pair_coeff	 570 590 593457 491.483
pair_coeff	 572 590 448533 427.279
pair_coeff	 572 591 1.17463e+06 691.455
pair_coeff	 596 606 1.03907e+06 650.334
pair_coeff	 595 609 133364 232.988
pair_coeff	 596 609 335006 369.267
pair_coeff	 593 610 965610 626.924
pair_coeff	 595 610 399691 403.345
pair_coeff	 596 610 129987 230.019
pair_coeff	 596 611 1.26354e+06 717.147
pair_coeff	 595 612 634247 508.094
pair_coeff	 596 612 520898 460.459
pair_coeff	 610 628 1.23471e+06 708.92
pair_coeff	 611 628 280839 338.098
pair_coeff	 613 630 1.17983e+06 692.986
pair_coeff	 616 626 1.01335e+06 642.236
pair_coeff	 615 629 1.10639e+06 671.07
pair_coeff	 616 629 442647 424.466
pair_coeff	 616 630 248968 318.336
pair_coeff	 1448 1462 154424 250.71
pair_coeff	 1448 1463 568838 481.181
pair_coeff	 1449 1459 1.47748e+06 775.487
pair_coeff	 1449 1462 647108 513.219
pair_coeff	 1449 1463 383969 395.332
pair_coeff	 1446 1463 1.06542e+06 658.528
pair_coeff	 595 608 1.54858e+06 793.927
pair_coeff	 616 632 707739 536.724
pair_coeff	 1301 1454 848784 587.778
pair_coeff	 1303 1454 35966.9 120.994
pair_coeff	 1304 1454 768687 559.357
pair_coeff	 1448 1472 1.12781e+06 677.536
pair_coeff	 1454 1472 129513 132.559
pair_coeff	 1454 1473 37587.9 71.4131
pair_coeff	 1436 1454 354040 219.169
pair_coeff	 1451 1472 345788 216.6
pair_coeff	 1452 1472 88961.9 109.864
pair_coeff	 1453 1472 184639 158.276
pair_coeff	 1452 1473 154254 144.668
pair_coeff	 1302 1454 705212 535.765
pair_coeff	 1455 1473 78078.9 102.925
pair_coeff	 1456 1473 256593 186.585
pair_coeff	 1432 1454 400537 233.118
pair_coeff	 1434 1454 80171.9 104.295
pair_coeff	 1435 1454 159230 146.983
pair_coeff	 1457 1473 465472 251.305
pair_coeff	 1321 1436 32151.1 114.396
pair_coeff	 1321 1453 887610 601.07
pair_coeff	 1303 1452 742101 549.599
pair_coeff	 1303 1453 667796 521.358
pair_coeff	 1304 1453 768907 559.437
pair_coeff	 1320 1436 394487 400.71
pair_coeff	 1436 1451 319487 208.2
pair_coeff	 1436 1452 135781 135.729
pair_coeff	 1436 1453 239249 180.168
pair_coeff	 1322 1436 302706 351.014
pair_coeff	 1435 1451 234762 178.471
pair_coeff	 1434 1452 459523 249.694
pair_coeff	 1435 1452 185327 158.571
pair_coeff	 1437 1451 251825 184.843
pair_coeff	 1411 1436 450564 247.248
pair_coeff	 672 694 1.33974e+06 738.455
pair_coeff	 642 694 253777 321.396
pair_coeff	 639 694 511291 456.193
pair_coeff	 641 694 14027.6 75.5624
pair_coeff	 643 694 147598 245.106
pair_coeff	 640 694 667482 521.235
pair_coeff	 676 696 1.05146e+06 654.201
pair_coeff	 678 696 1.14672e+06 683.192
pair_coeff	 655 682 913816 609.879
pair_coeff	 635 682 897163 604.296
pair_coeff	 636 682 319801 360.79
pair_coeff	 635 683 177051 268.45
pair_coeff	 636 683 9029.34 60.6237
pair_coeff	 637 683 975888 630.252
pair_coeff	 636 684 526899 463.103
pair_coeff	 639 682 1.48568e+06 777.636
pair_coeff	 640 682 43698.2 133.366
pair_coeff	 640 683 138344 237.298
pair_coeff	 640 684 1.31576e+06 731.818
pair_coeff	 667 682 64137.6 93.2846
pair_coeff	 668 682 144434 139.987
pair_coeff	 661 683 97834.1 115.212
pair_coeff	 662 683 130906 133.27
pair_coeff	 664 683 115231 125.037
pair_coeff	 667 683 107662 120.861
pair_coeff	 668 683 81418.2 105.103
pair_coeff	 662 684 155940 145.456
pair_coeff	 664 684 43098.2 76.4686
pair_coeff	 667 684 395635 231.687
pair_coeff	 665 682 147473 141.452
pair_coeff	 665 683 108017 121.06
pair_coeff	 665 684 79559 103.896
pair_coeff	 666 684 300758 202.005
pair_coeff	 636 660 454476 430.1
pair_coeff	 636 661 875429 596.932
pair_coeff	 659 1522 740295 548.93
pair_coeff	 1498 1522 227795 175.803
pair_coeff	 662 1242 256176 322.912
pair_coeff	 663 1242 265868 328.963
pair_coeff	 664 1242 194077 281.061
pair_coeff	 660 1522 115606 216.923
pair_coeff	 661 1522 183629 273.391
pair_coeff	 662 1522 575150 483.844
pair_coeff	 663 1522 1.14733e+06 683.373
pair_coeff	 668 1522 1.47594e+06 775.084
pair_coeff	 1242 1522 190162 278.212
pair_coeff	 1499 1522 36519.1 70.3905
pair_coeff	 1222 1242 195943 163.049
pair_coeff	 1220 1242 199792 164.643
pair_coeff	 1221 1242 346425 216.799
pair_coeff	 1280 1476 290208 343.692
pair_coeff	 1282 1476 17190.7 83.649
pair_coeff	 1282 1499 1.12495e+06 676.676
pair_coeff	 1301 1476 275687 334.983
pair_coeff	 1303 1476 783848 564.846
pair_coeff	 1475 1499 263434 189.056
pair_coeff	 1260 1499 595778 492.444
pair_coeff	 1281 1476 408897 407.963
pair_coeff	 1476 1499 31894.3 65.7825
pair_coeff	 1302 1476 77994 178.174
pair_coeff	 1456 1476 154656 144.856
pair_coeff	 1261 1499 1.05691e+06 655.893
pair_coeff	 1262 1499 77783.1 177.933
pair_coeff	 1282 1302 110270 122.316
pair_coeff	 1303 1455 658439 517.693
pair_coeff	 1301 1456 528173 463.663
pair_coeff	 1303 1456 410501 408.763
pair_coeff	 1302 1455 599036 493.788
pair_coeff	 1302 1456 23017.2 96.7922
pair_coeff	 1432 1455 58282.7 88.9249
pair_coeff	 1433 1455 213363 170.143
pair_coeff	 1434 1455 62821.7 92.3227
pair_coeff	 1435 1455 233597 178.027
pair_coeff	 1432 1456 36326.8 70.2048
pair_coeff	 1433 1456 30567.7 64.3999
pair_coeff	 1434 1456 134509 135.092
pair_coeff	 1431 1455 180963 156.693
pair_coeff	 1438 1455 479665 255.107
pair_coeff	 1431 1456 238747 179.979
pair_coeff	 1321 1434 1.15541e+06 685.775
pair_coeff	 1321 1435 1.06695e+06 659.002
pair_coeff	 1301 1322 141398 138.508
pair_coeff	 1303 1322 71429.1 98.4445
pair_coeff	 1304 1322 312144 205.793
pair_coeff	 1300 1324 316081 207.087
pair_coeff	 1301 1324 62466.3 92.0612
pair_coeff	 1303 1324 472125 253.094
pair_coeff	 1323 1433 790399 567.202
pair_coeff	 1320 1434 926630 614.14
pair_coeff	 1323 1434 616690 501.012
pair_coeff	 1302 1322 363745 222.153
pair_coeff	 1302 1324 19116.5 50.9281
pair_coeff	 1302 1433 889433 601.688
pair_coeff	 1322 1432 895522 603.743
pair_coeff	 1324 1432 458246 431.881
pair_coeff	 1322 1433 786808 565.912
pair_coeff	 1324 1433 25721.1 102.32
pair_coeff	 1322 1434 34092.3 117.799
pair_coeff	 1324 1434 373495 389.903
pair_coeff	 1322 1435 605100 496.281
pair_coeff	 1348 1432 1.21981e+06 704.628
pair_coeff	 1348 1434 659270 518.019
pair_coeff	 1349 1434 892183 602.617
pair_coeff	 1348 1435 1.46651e+06 772.604
pair_coeff	 1343 1432 1.41535e+06 759.007
pair_coeff	 1345 1432 330739 366.908
pair_coeff	 1343 1433 258577 324.421
pair_coeff	 1344 1433 677124 524.987
pair_coeff	 1345 1433 117849 219.017
pair_coeff	 1411 1435 386477 228.989
pair_coeff	 1346 1432 317267 359.357
pair_coeff	 1347 1432 869715 594.981
pair_coeff	 1346 1433 602545 495.232
pair_coeff	 1346 1434 839764 584.646
pair_coeff	 1319 1340 471744 252.992
pair_coeff	 1320 1340 285308 196.748
pair_coeff	 1323 1340 255711 186.264
pair_coeff	 1325 1340 452254 247.711
pair_coeff	 1316 1333 740283 548.925
pair_coeff	 1322 1339 561684 276.058
pair_coeff	 1322 1340 213346 170.136
pair_coeff	 640 676 540107 468.872
pair_coeff	 679 692 934151 616.627
pair_coeff	 679 695 388769 397.796
pair_coeff	 678 695 133733 233.31
pair_coeff	 655 675 851561 588.738
pair_coeff	 656 675 1.34181e+06 739.025
pair_coeff	 640 681 340724 372.405
pair_coeff	 667 681 220260 172.871
pair_coeff	 664 691 244669 182.198
pair_coeff	 665 681 169642 151.712
pair_coeff	 666 681 174845 154.021
pair_coeff	 665 691 110872 122.649
pair_coeff	 666 691 87505.4 108.961
pair_coeff	 664 1238 1.56156e+06 797.249
pair_coeff	 667 1238 979682 631.476
pair_coeff	 662 1240 1.14656e+06 683.145
pair_coeff	 664 1240 136099 235.365
pair_coeff	 667 1240 380177 393.376
pair_coeff	 662 1241 1.12137e+06 675.6
pair_coeff	 664 1241 176784 268.248
pair_coeff	 666 1237 428056 417.412
pair_coeff	 665 1238 252031 320.288
pair_coeff	 666 1238 88298.6 189.579
pair_coeff	 665 1240 72769.9 172.104
pair_coeff	 666 1240 152197 248.895
pair_coeff	 665 1241 532269 465.457
pair_coeff	 666 1241 895064 603.589
pair_coeff	 1220 1241 189534 160.361
pair_coeff	 1218 1243 141674 138.643
pair_coeff	 1219 1243 311128 205.458
pair_coeff	 1220 1243 120918 128.086
pair_coeff	 1221 1243 508529 262.671
pair_coeff	 1218 1244 349852 217.869
pair_coeff	 1219 1244 241535 181.027
pair_coeff	 1214 1244 686345 528.549
pair_coeff	 1242 1262 104813 119.251
pair_coeff	 1240 1261 199738 164.62
pair_coeff	 1241 1261 372439 224.792
pair_coeff	 1240 1262 381200 227.421
pair_coeff	 1241 1262 192914 161.784
pair_coeff	 1238 1263 355039 219.478
pair_coeff	 1240 1263 307141 204.137
pair_coeff	 1241 1263 534698 269.344
pair_coeff	 1323 1343 398654 232.569
pair_coeff	 1323 1344 564899 276.846
pair_coeff	 1324 1343 44133 77.3812
pair_coeff	 1324 1344 29193 62.9351
pair_coeff	 1320 1341 546299 272.251
pair_coeff	 1323 1341 33170.8 67.086
pair_coeff	 1325 1341 68203.8 96.1962
pair_coeff	 1326 1341 342816 215.667
pair_coeff	 1323 1342 115489 125.177
pair_coeff	 1322 1341 120398 127.81
pair_coeff	 1324 1341 93115.1 112.399
pair_coeff	 1322 1342 243559 181.784
pair_coeff	 1324 1342 70631.7 97.8934
pair_coeff	 1339 1374 478593 441.365
pair_coeff	 1340 1374 1.51633e+06 785.618
pair_coeff	 1348 1374 178531 269.57
pair_coeff	 1349 1374 75615.4 175.436
pair_coeff	 1336 1374 1.02096e+06 644.642
pair_coeff	 1343 1374 405610 406.32
pair_coeff	 1345 1374 537785 467.863
pair_coeff	 1341 1374 946282 620.618
pair_coeff	 1342 1374 128642 228.826
pair_coeff	 1353 1374 552559 474.246
pair_coeff	 1354 1374 630351 506.53
pair_coeff	 1355 1374 865115 593.405
pair_coeff	 1346 1374 393576 400.247
pair_coeff	 1336 1353 157875 253.496
pair_coeff	 1337 1353 1.39803e+06 754.35
pair_coeff	 1214 1229 1.12805e+06 677.608
pair_coeff	 1215 1229 634984 508.388
pair_coeff	 1214 1231 472985 438.771
pair_coeff	 1215 1231 311235 355.925
pair_coeff	 1212 1229 1.17526e+06 691.642
pair_coeff	 1234 1247 1.2658e+06 717.788
pair_coeff	 1228 1247 836436 583.486
pair_coeff	 893 912 375027 390.702
pair_coeff	 877 893 1.44371e+06 766.575
pair_coeff	 876 893 480472 442.23
pair_coeff	 870 892 887841 601.149
pair_coeff	 876 892 1.37363e+06 747.737
pair_coeff	 874 894 916288 610.703
pair_coeff	 877 894 453258 429.524
pair_coeff	 877 896 227892 304.564
pair_coeff	 876 894 809134 573.884
pair_coeff	 876 896 339442 371.704
pair_coeff	 856 880 318698 360.167
pair_coeff	 876 909 618218 501.632
pair_coeff	 560 882 1.48593e+06 777.702
pair_coeff	 888 909 419334 238.525
pair_coeff	 889 909 438615 243.947
pair_coeff	 860 879 382176 227.712
pair_coeff	 861 879 156882 145.895
pair_coeff	 859 880 265787 189.898
pair_coeff	 860 880 77519.5 102.556
pair_coeff	 861 880 116965 125.974
pair_coeff	 862 880 204607 166.615
pair_coeff	 860 882 339493 214.619
pair_coeff	 862 882 65931.3 94.58
pair_coeff	 863 882 277886 194.172
pair_coeff	 559 882 552005 474.008
pair_coeff	 864 882 483492 256.123
pair_coeff	 859 881 292764 199.302
pair_coeff	 860 881 73774.8 100.048
pair_coeff	 861 881 337140 213.874
pair_coeff	 862 881 35869.1 69.7612
pair_coeff	 863 881 98414.2 115.553
pair_coeff	 866 881 551745 273.604
pair_coeff	 865 881 376233 225.934
pair_coeff	 864 881 497823 259.891
pair_coeff	 814 831 760512 556.375
pair_coeff	 813 830 456817 431.206
pair_coeff	 811 831 944570 620.056
pair_coeff	 813 831 731947 545.826
pair_coeff	 560 888 266902 329.602
pair_coeff	 560 889 559774 477.332
pair_coeff	 861 889 511655 263.477
pair_coeff	 862 889 485431 256.636
pair_coeff	 559 888 1.25925e+06 715.93
pair_coeff	 559 889 980272 631.666
pair_coeff	 561 888 780029 563.469
pair_coeff	 836 866 1.11151e+06 672.62
pair_coeff	 560 860 856891 590.578
pair_coeff	 560 861 200488 285.666
pair_coeff	 560 862 188614 277.077
pair_coeff	 841 859 495899 259.388
pair_coeff	 842 863 115005 124.914
pair_coeff	 839 866 450686 247.281
pair_coeff	 840 866 141914 138.76
pair_coeff	 841 866 220557 172.987
pair_coeff	 842 866 297314 200.845
pair_coeff	 583 859 155609 251.67
pair_coeff	 582 860 290980 344.148
pair_coeff	 583 860 57308.6 152.73
pair_coeff	 584 860 1.55728e+06 796.155
pair_coeff	 582 861 331567 367.367
pair_coeff	 583 861 109239 210.865
pair_coeff	 584 861 477537 440.877
pair_coeff	 581 862 411658 409.339
pair_coeff	 582 862 298439 348.532
pair_coeff	 583 862 260226 325.454
pair_coeff	 581 863 1.04138e+06 651.057
pair_coeff	 583 866 1.20152e+06 699.325
pair_coeff	 559 860 240677 312.991
pair_coeff	 559 861 259798 325.186
pair_coeff	 557 862 327018 364.838
pair_coeff	 558 862 419120 413.032
pair_coeff	 559 862 6576.85 51.7396
pair_coeff	 557 863 1.22856e+06 707.151
pair_coeff	 558 863 310574 355.547
pair_coeff	 559 863 192107 279.631
pair_coeff	 843 863 191920 161.367
pair_coeff	 844 863 245890 182.652
pair_coeff	 839 865 375994 225.863
pair_coeff	 840 865 117706 126.373
pair_coeff	 842 865 57454.8 88.2911
pair_coeff	 581 840 880934 598.806
pair_coeff	 583 840 286881 341.716
pair_coeff	 581 841 774116 561.329
pair_coeff	 582 841 682109 526.916
pair_coeff	 583 841 19471.3 89.0249
pair_coeff	 581 842 42569.8 131.633
pair_coeff	 582 842 638571 509.822
pair_coeff	 583 842 266354 329.264
pair_coeff	 600 841 698932 533.374
pair_coeff	 600 842 1.49949e+06 781.242
pair_coeff	 822 839 319114 208.078
pair_coeff	 823 839 89376.3 110.12
pair_coeff	 824 839 199585 164.557
pair_coeff	 825 839 146049 140.768
pair_coeff	 822 840 71610.6 98.5694
pair_coeff	 823 840 94895.7 113.469
pair_coeff	 824 840 187634 159.555
pair_coeff	 822 841 247195 183.136
pair_coeff	 823 841 309564 204.941
pair_coeff	 824 841 154580 144.821
pair_coeff	 822 842 56876 87.8452
pair_coeff	 823 842 328643 211.162
pair_coeff	 823 846 274679 193.049
pair_coeff	 825 846 109319 121.787
pair_coeff	 843 865 105707 119.758
pair_coeff	 845 865 393055 230.93
pair_coeff	 811 846 1.38254e+06 750.159
pair_coeff	 813 846 721751 542.011
pair_coeff	 816 846 554812 274.364
pair_coeff	 579 842 1.18127e+06 693.408
pair_coeff	 580 842 1.18072e+06 693.247
pair_coeff	 820 840 438796 243.997
pair_coeff	 820 842 75466 101.188
pair_coeff	 821 842 168751 151.313
pair_coeff	 819 842 475882 254.099
pair_coeff	 819 846 511666 263.479
pair_coeff	 826 846 132302 133.979
pair_coeff	 824 833 1.69862e+06 831.5
pair_coeff	 825 833 738364 548.213
pair_coeff	 823 838 1.05958e+06 656.721
pair_coeff	 824 838 531938 465.313
pair_coeff	 825 838 1.44913e+06 768.012
pair_coeff	 813 833 683050 527.279
pair_coeff	 561 574 1.43724e+06 764.854
pair_coeff	 560 575 273595 192.667
pair_coeff	 560 584 224814 174.649
pair_coeff	 560 585 121314 128.295
pair_coeff	 557 581 539116 270.455
pair_coeff	 558 581 451154 247.409
pair_coeff	 559 581 236653 179.188
pair_coeff	 559 582 291068 198.724
pair_coeff	 559 584 287636 197.549
pair_coeff	 557 585 513795 264.027
pair_coeff	 559 585 167198 150.615
pair_coeff	 561 575 150526 142.909
pair_coeff	 562 575 349436 217.74
pair_coeff	 561 585 320628 208.571
pair_coeff	 581 599 63916.3 93.1235
pair_coeff	 582 599 188384 159.873
pair_coeff	 581 600 101642 117.433
pair_coeff	 582 600 260980 188.173
pair_coeff	 583 600 404422 234.245
pair_coeff	 578 599 470599 252.685
pair_coeff	 579 599 122928 129.146
pair_coeff	 580 599 455437 248.581
pair_coeff	 612 824 945845 620.475
pair_coeff	 599 822 734781 546.882
pair_coeff	 600 822 25916.3 102.707
pair_coeff	 600 823 909465 608.425
pair_coeff	 600 824 841546 585.266
pair_coeff	 620 822 433101 419.864
pair_coeff	 620 823 185836 275.029
pair_coeff	 620 824 342187 373.204
pair_coeff	 620 825 628490 505.782
pair_coeff	 618 822 1.44634e+06 767.273
pair_coeff	 619 822 233507 308.294
pair_coeff	 619 823 459881 432.65
pair_coeff	 617 824 1.39313e+06 753.027
pair_coeff	 618 824 1.62383e+06 812.988
pair_coeff	 619 824 814738 575.868
pair_coeff	 776 825 1.60447e+06 808.129
pair_coeff	 777 825 507229 454.377
pair_coeff	 601 822 1.13829e+06 680.677
pair_coeff	 621 822 246407 316.695
pair_coeff	 622 822 1.65796e+06 821.487
pair_coeff	 621 823 1.70346e+06 832.683
pair_coeff	 551 567 387167 396.975
pair_coeff	 551 568 843276 585.867
pair_coeff	 551 569 74469 174.101
pair_coeff	 550 567 782378 564.316
pair_coeff	 550 569 83555.9 184.418
pair_coeff	 548 567 1.68895e+06 829.13
pair_coeff	 573 592 452306 429.072
pair_coeff	 584 592 458464 431.983
pair_coeff	 585 592 1.56004e+06 796.86
pair_coeff	 575 605 252901 185.238
pair_coeff	 584 605 397235 232.155
pair_coeff	 585 605 105340 119.55
pair_coeff	 572 589 678565 525.545
pair_coeff	 570 592 1.17365e+06 691.169
pair_coeff	 572 592 75582.3 175.398
pair_coeff	 572 605 1.13206e+06 678.811
pair_coeff	 576 605 471758 252.996
pair_coeff	 577 605 387784 229.376
pair_coeff	 578 605 135505 135.591
pair_coeff	 582 597 650200 514.444
pair_coeff	 583 597 1.27686e+06 720.917
pair_coeff	 584 597 506838 454.202
pair_coeff	 581 598 251531 184.735
pair_coeff	 582 598 172421 152.95
pair_coeff	 584 598 177456 155.167
pair_coeff	 585 598 197950 163.882
pair_coeff	 599 624 89759.3 110.355
pair_coeff	 600 624 185586 158.682
pair_coeff	 578 598 322924 209.317
pair_coeff	 579 598 406010 234.705
pair_coeff	 601 624 38719.7 72.4803
pair_coeff	 602 624 239259 180.172
pair_coeff	 600 618 416306 237.662
pair_coeff	 599 625 217201 171.666
pair_coeff	 600 625 150820 143.049
pair_coeff	 601 625 452962 247.905
pair_coeff	 620 755 12324 70.8256
pair_coeff	 616 755 128205 228.437